p cnf 421 1243
c ind 419 415 405 406 409 412 413 379 382 384 0
c ind 394 402 403 408 411 417 418 381 385 388 0
c ind 390 391 395 397 398 400 404 410 380 386 0
c ind 389 392 396 401 407 414 387 399 416 383 0
c ind 393 1 0
c ret 264 273 363 364 365 366 367 368 369 370 0
c ret 371 372 274 373 374 375 376 377 378 275 0
c ret 276 277 278 279 280 281 282 265 283 284 0
c ret 285 286 287 288 289 290 291 292 266 293 0
c ret 294 295 296 297 298 299 300 301 302 267 0
c ret 303 304 305 306 307 308 309 310 311 312 0
c ret 268 313 314 315 316 317 318 319 320 321 0
c ret 322 269 323 324 325 326 327 328 329 330 0
c ret 331 332 270 333 334 335 336 337 338 339 0
c ret 340 341 342 271 343 344 345 346 347 348 0
c ret 349 350 351 352 272 353 354 355 356 357 0
c ret 358 359 360 361 362 0
2 -3 -94 -127 -132 0
-2 132 0
-2 3 0
-2 127 0
-2 94 0
3 -4 60 -65 377 0
3 -4 -60 -65 -377 0
-3 65 0
-3 60 -377 0
-3 4 0
-3 -60 377 0
4 -45 -359 364 0
4 -5 45 359 0
4 45 359 364 0
4 -5 -45 -359 0
-4 -45 359 0
-4 45 -359 0
-4 5 -364 0
5 6 -33 0
5 6 -8 -290 0
-5 -6 0
-5 8 33 0
-5 33 290 0
6 -7 271 0
6 -7 270 0
-6 7 0
-6 -270 -271 0
7 272 273 274 275 0
-7 -275 0
-7 -274 0
-7 -272 0
-7 -273 0
8 9 -10 0
8 9 16 0
-8 -9 0
-8 10 -16 0
-7 9 -270 -271 0
-9 270 0
-9 271 0
7 -9 0
10 11 -13 0
-10 -11 0
-10 13 0
11 -12 346 348 -349 0
-11 -346 0
-11 12 0
-11 349 0
-11 -348 0
12 -344 -345 0
-12 344 0
-12 345 0
13 -14 270 0
-13 -270 0
-13 14 0
14 -15 271 -272 273 0
-14 272 0
-14 -273 0
-14 -271 0
-14 15 0
15 274 275 0
-15 -274 0
-15 -275 0
-14 16 270 0
-14 16 17 0
14 -16 0
-16 -17 -270 0
17 18 -21 0
-17 -18 0
-17 21 0
18 -19 346 0
-18 -346 0
-18 19 0
19 -20 347 0
-19 -347 0
-19 20 0
20 344 345 348 349 0
-20 -349 0
-20 -348 0
-20 -344 0
-20 -345 0
21 -22 32 0
-21 22 0
-21 -32 0
22 -23 -28 0
-22 23 0
-22 28 0
23 24 25 0
-23 -24 0
-23 -25 0
-20 24 346 -347 0
20 -24 0
-24 347 0
-24 -346 0
25 -26 -344 0
-25 344 0
-25 26 0
26 -27 345 -346 347 0
-26 346 0
-26 -347 0
-26 -345 0
-26 27 0
27 348 349 0
-27 -348 0
-27 -349 0
28 29 31 0
-28 -29 0
-28 -31 0
-27 29 -30 346 347 0
-29 -346 0
-29 30 0
27 -29 0
-29 -347 0
30 344 -345 0
-30 -344 0
-30 345 0
-19 31 -346 0
-31 346 0
19 -31 0
-11 32 347 0
-32 -347 0
11 -32 0
33 -34 -290 0
17 33 -34 0
33 -34 -44 0
-33 34 0
-17 -33 44 290 0
-9 34 35 0
9 -34 0
-34 -35 0
-18 35 -36 -37 -39 0
-35 39 0
18 -35 0
-35 37 0
-35 36 0
36 320 321 322 0
-36 -320 0
-36 -322 0
-36 -321 0
37 -38 341 342 343 0
-37 38 0
-37 -343 0
-37 -341 0
-37 -342 0
38 337 338 339 340 0
-38 -340 0
-38 -339 0
-38 -337 0
-38 -338 0
39 -40 -41 -42 -43 0
-39 43 0
-39 40 0
-39 42 0
-39 41 0
40 325 326 327 328 0
-40 -328 0
-40 -327 0
-40 -325 0
-40 -326 0
41 318 319 323 324 0
-41 -324 0
-41 -323 0
-41 -318 0
-41 -319 0
42 333 334 335 336 0
-42 -336 0
-42 -335 0
-42 -333 0
-42 -334 0
43 329 330 331 332 0
-43 -332 0
-43 -331 0
-43 -329 0
-43 -330 0
-11 44 -347 0
-44 347 0
11 -44 0
45 46 50 0
45 46 -47 -285 0
-45 -46 0
-45 -50 285 0
-45 47 -50 0
-7 46 271 0
-46 -271 0
7 -46 0
11 47 -48 0
-11 -47 0
-47 48 0
-22 48 -49 0
22 -48 0
-48 49 0
-9 18 49 0
9 -49 0
-18 -49 0
-9 50 51 0
50 51 52 58 0
-50 -51 0
9 -50 -58 0
9 -50 -52 0
-7 51 270 -271 0
7 -51 0
-51 271 0
-51 -270 0
52 53 -285 0
52 -54 -56 -285 0
-52 285 0
-52 -53 54 0
-52 -53 56 0
-11 -14 53 0
-14 53 -270 0
14 -53 0
11 -53 270 0
25 54 -55 0
-25 -54 0
-54 55 0
24 32 55 0
-24 -55 0
-32 -55 0
18 56 -57 0
-18 -56 0
-56 57 0
-14 57 -270 0
-57 270 0
14 -57 0
-56 58 59 0
56 -58 0
-58 -59 0
26 29 59 0
-26 -59 0
-29 -59 0
6 60 -63 0
6 60 -61 62 0
-6 -60 0
-60 61 63 0
-60 -62 63 0
9 -57 61 0
-9 -61 0
57 -61 0
18 -55 62 0
18 59 62 0
-18 -62 0
55 -59 -62 0
-47 63 -303 0
9 63 64 -303 0
-63 303 0
-9 47 -63 0
47 -63 -64 0
-53 64 270 0
-53 59 64 0
53 -64 0
-59 -64 -270 0
65 -66 -78 -86 -91 0
-65 91 0
-65 66 0
-65 86 0
-65 78 0
66 67 75 -311 0
66 -67 75 311 0
66 -67 311 -370 0
66 67 -311 -370 0
-66 -67 -311 0
-66 67 311 0
-66 -75 370 0
46 67 -68 0
-46 67 -270 0
-46 67 -317 0
46 -67 68 0
-46 -67 270 317 0
68 69 -74 0
7 68 69 0
68 69 -317 0
-68 -69 0
-7 -68 74 317 0
51 69 -72 0
51 69 -70 -71 0
-51 -69 0
-69 70 72 0
-69 71 72 0
19 29 -54 70 -270 0
54 -70 0
-29 -70 0
-70 270 0
-19 -70 0
-34 44 71 0
34 -71 0
-44 -71 0
9 72 73 317 0
9 14 72 73 0
-72 -73 0
-9 -72 0
-14 -72 -317 0
14 73 270 0
11 73 270 0
-73 -270 0
-11 -14 -73 0
18 -22 74 -270 0
-74 270 0
-18 -74 0
22 -74 0
6 75 -76 0
6 -18 -61 75 0
-6 -75 0
18 -75 76 0
61 -75 76 0
-47 76 -296 0
9 76 77 -296 0
-76 296 0
-9 47 -76 0
47 -76 -77 0
21 -53 77 0
-53 77 270 0
53 -77 0
-21 -77 -270 0
78 -79 -361 371 0
78 79 361 371 0
78 79 -82 361 0
78 -79 -82 -361 0
-78 79 -361 0
-78 -79 361 0
-78 82 -371 0
46 -51 79 0
46 79 80 -287 0
-46 -79 0
51 -79 -80 0
51 -79 287 0
47 80 81 0
-47 -80 0
-80 -81 0
9 53 81 0
9 -70 81 0
-9 -81 0
-53 70 -81 0
6 82 -85 0
6 -34 82 83 0
-6 -82 0
34 -82 85 0
-82 -83 85 0
18 59 83 0
18 83 -84 297 0
-18 -83 0
-59 -83 -297 0
-59 -83 84 0
11 24 84 0
-11 -84 0
-24 -84 0
-8 85 -297 0
-85 297 0
8 -85 0
86 370 372 0
-75 86 -87 0
86 -87 370 0
-75 86 372 0
75 -86 -370 0
-86 87 -372 0
6 87 -88 0
6 -8 87 -298 0
-6 -87 0
8 -87 88 0
-87 88 298 0
18 -34 88 89 0
-34 88 89 -90 0
34 -88 0
-88 -89 0
-18 -88 90 0
18 -21 44 89 298 0
-89 -298 0
-44 -89 0
21 -89 0
-18 -89 0
-36 90 318 323 0
36 -90 0
-90 -323 0
-90 -318 0
5 91 -358 0
91 92 -364 0
91 -358 -364 0
5 91 92 0
-91 -92 358 0
-5 -91 364 0
-46 92 -270 0
46 92 -93 -284 0
46 -92 93 0
-46 -92 270 0
46 -92 284 0
51 80 93 0
-51 -93 0
-80 -93 0
94 -95 -113 -121 -126 0
-94 126 0
-94 95 0
-94 121 0
-94 113 0
95 100 -106 362 0
95 -96 100 -106 0
-95 106 0
-95 -100 0
-95 96 -362 0
46 -51 96 0
46 96 97 -288 0
-46 -96 0
51 -96 -97 0
51 -96 288 0
47 97 98 0
-47 -97 0
-97 -98 0
9 53 98 0
9 -54 98 -99 0
-9 -98 0
-53 54 -98 0
-53 -98 99 0
19 29 99 -270 0
-99 270 0
-29 -99 0
-19 -99 0
100 -101 373 0
100 101 -373 0
-100 -101 -373 0
-100 101 373 0
6 101 -103 0
6 -48 101 -102 0
-6 -101 0
48 -101 103 0
-101 102 103 0
11 102 -299 0
-102 299 0
-11 -102 0
9 -13 -102 103 0
9 13 103 -104 0
-9 -103 0
-13 102 -103 0
13 -103 104 0
104 -105 -299 0
-14 56 104 0
56 104 -299 0
-14 104 -105 0
14 -104 299 0
-56 -104 105 0
-24 -59 105 0
32 -59 105 -299 0
59 -105 0
24 -32 -105 0
24 -105 299 0
106 110 312 -369 0
106 -107 -110 369 0
106 -110 312 369 0
106 -107 110 -369 0
-106 110 369 0
-106 -110 -369 0
-106 107 -312 0
6 107 109 0
107 108 109 317 0
-107 -109 0
-6 -107 -108 0
-6 -107 -317 0
108 270 271 0
-108 -270 0
-108 -271 0
7 109 271 0
109 270 271 0
-7 47 109 -270 -271 0
-109 270 -271 0
-47 -109 -271 0
7 -109 -271 0
-7 -109 -270 271 0
47 110 111 0
-6 110 111 0
110 111 295 0
-110 -111 0
6 -47 -110 -295 0
7 111 -112 0
7 53 111 -295 0
-7 -111 0
-53 -111 112 0
-111 112 295 0
-29 -56 112 0
-21 -56 112 -295 0
56 -112 0
21 29 -112 0
29 -112 295 0
113 -114 119 360 0
113 -114 -119 -360 0
-113 114 0
-113 119 -360 0
-113 -119 360 0
114 -116 -363 0
114 115 367 0
114 115 -116 0
114 -363 367 0
-114 116 -367 0
-114 -115 363 0
46 -51 115 0
46 97 115 -289 0
-46 -115 0
51 -97 -115 0
51 -115 289 0
6 116 -118 0
6 -25 116 -117 0
-6 -116 0
25 -116 118 0
-116 117 118 0
-28 -49 117 0
28 -117 0
49 -117 0
-81 118 -293 0
-84 -117 118 -293 0
-118 293 0
81 117 -118 0
81 84 -118 0
-46 119 -270 0
46 97 119 -120 0
46 -119 120 0
-46 -119 270 0
46 -97 -119 0
51 120 -286 0
-120 286 0
-51 -120 0
121 122 -367 0
116 121 378 0
116 121 122 0
121 -367 378 0
-121 -122 -378 0
-116 -121 367 0
117 122 124 0
122 123 124 0
54 122 124 0
-122 -124 0
-54 -117 -122 -123 0
6 44 123 -304 0
-123 304 0
-44 -123 0
-6 -123 0
7 124 -125 0
7 16 124 -304 0
-7 -124 0
-16 -124 125 0
-124 125 304 0
11 -13 125 -304 0
-11 -13 125 -347 0
13 -125 0
11 -125 304 0
-11 -125 347 0
-115 126 -362 0
96 126 363 0
96 -115 126 0
126 -362 363 0
115 -126 -363 0
-96 -126 362 0
127 128 130 131 374 0
127 -128 130 131 -374 0
-127 -130 0
-127 128 -374 0
-127 -131 0
-127 -128 374 0
46 128 129 0
-46 -128 0
-128 -129 0
51 -80 129 0
29 -51 129 0
51 129 300 0
-29 -51 -129 0
51 80 -129 -300 0
-82 130 371 0
-130 -371 0
82 -130 0
-87 131 372 0
-131 -372 0
87 -131 0
132 -133 -152 358 0
-92 132 -133 -152 0
-132 152 0
-132 133 0
92 -132 -358 0
133 -134 151 -378 0
-122 133 -134 151 0
-133 134 0
-133 -151 0
122 -133 378 0
134 -138 -145 376 0
134 -135 -138 -145 0
-134 145 0
-134 138 0
-134 135 -376 0
6 135 -136 0
6 -81 135 -302 0
-6 -135 0
81 -135 136 0
-135 136 302 0
-18 -34 136 0
-34 -59 136 137 0
34 -136 0
18 -136 -137 0
18 59 -136 0
-11 24 137 0
24 137 302 0
-24 -137 0
11 -137 -302 0
138 139 -143 0
138 365 375 0
138 -143 365 0
138 139 375 0
-138 -139 -365 0
-138 143 -375 0
-7 139 140 0
139 140 141 142 0
-139 -140 0
7 -139 -142 0
7 -139 -141 0
6 11 -48 140 -291 0
48 -140 0
-11 -140 0
-140 291 0
-6 -140 0
11 -13 141 -291 0
-11 -13 141 347 0
13 -141 0
-11 -141 -347 0
11 -141 291 0
-70 142 -291 0
14 142 -291 0
-142 291 0
-14 70 -142 0
6 143 -144 0
6 -98 143 -301 0
-6 -143 0
98 -143 144 0
-143 144 301 0
22 -49 144 0
11 -49 144 -301 0
49 -144 0
-11 -22 -144 0
-22 -144 301 0
145 146 147 150 366 0
145 146 -147 150 -366 0
-145 -146 0
-145 147 -366 0
-145 -150 0
-145 -147 366 0
139 146 365 0
-146 -365 0
-139 -146 0
6 147 -148 0
6 -81 147 -292 0
-6 -147 0
81 -147 148 0
-147 148 292 0
-26 29 -49 148 0
29 -49 148 -149 0
49 -148 0
-29 -148 0
26 -148 149 0
11 -23 149 -292 0
-149 292 0
-11 -149 0
23 -149 0
-143 150 375 0
-150 -375 0
143 -150 0
-107 151 312 0
-151 -312 0
107 -151 0
152 153 -159 258 313 0
152 -153 -159 258 -313 0
-152 -258 0
-152 153 -313 0
-152 159 0
-152 -153 313 0
6 153 -157 0
6 153 154 317 0
-6 -153 0
-153 157 -317 0
-153 -154 157 0
34 154 156 0
11 154 -155 156 0
-154 -156 0
-34 -154 155 0
-11 -34 -154 0
18 -22 155 0
-18 -155 0
22 -155 0
-13 -32 156 0
13 -156 0
32 -156 0
157 158 -272 0
-17 -71 157 -272 0
-157 272 0
17 -157 -158 0
71 -157 -158 0
-14 73 158 0
-7 73 158 -271 0
-73 -158 0
14 -158 271 0
7 14 -158 0
159 -160 -167 -376 0
135 159 -160 -167 0
-159 167 0
-159 160 0
-135 -159 376 0
-18 160 -162 -163 0
160 -161 -162 -163 0
-160 163 0
-160 162 0
18 -160 161 0
161 354 357 0
-161 -354 0
-161 -357 0
11 162 0
162 347 -353 0
162 -347 -352 0
-11 -162 347 353 0
-11 -162 -347 352 0
31 163 -164 -166 355 0
-31 163 -164 -166 -355 0
-163 166 0
31 -163 -355 0
-163 164 0
-31 -163 355 0
164 -165 -274 -315 0
164 -165 274 315 0
-164 165 0
-164 -274 315 0
-164 274 -315 0
18 165 352 0
-44 165 -357 0
165 352 -357 0
18 -44 165 0
44 -165 -352 0
-18 -165 357 0
18 166 353 0
-32 166 -354 0
166 353 -354 0
18 -32 166 0
32 -166 -353 0
-18 -166 354 0
167 200 -233 0
167 168 -233 0
167 212 -233 0
-167 233 0
-167 -168 -200 -212 0
168 -169 -179 -184 -189 0
-168 189 0
-168 169 0
-168 184 0
-168 179 0
169 -170 -175 -177 -178 0
-169 178 0
-169 170 0
-169 177 0
-169 175 0
170 -171 -172 -173 -174 0
-170 174 0
-170 171 0
-170 173 0
-170 172 0
171 353 377 0
171 -394 -418 0
171 353 -418 0
171 377 -394 0
-171 -353 394 0
-171 -377 418 0
172 -360 -407 0
172 366 401 0
172 401 -407 0
172 -360 366 0
-172 -366 407 0
-172 360 -401 0
173 -361 -401 0
173 360 402 0
173 360 -361 0
173 -401 402 0
-173 -360 401 0
-173 361 -402 0
174 -372 411 0
174 -370 413 0
174 -370 -372 0
174 411 413 0
-174 372 -413 0
-174 370 -411 0
175 -176 -404 0
175 -176 363 0
-175 176 0
-175 -363 404 0
176 -366 395 0
176 -354 407 0
176 -354 -366 0
176 395 407 0
-176 366 -407 0
-176 354 -395 0
177 -362 -395 0
177 354 403 0
177 354 -362 0
177 -395 403 0
-177 -354 395 0
-177 362 -403 0
178 -365 -410 0
178 369 406 0
178 406 -410 0
178 -365 369 0
-178 -369 410 0
-178 365 -406 0
179 -180 -181 -182 -183 0
-179 183 0
-179 180 0
-179 182 0
-179 181 0
180 -363 -393 0
180 352 404 0
180 352 -363 0
180 -393 404 0
-180 -352 393 0
-180 363 -404 0
181 -357 381 0
181 -307 398 0
181 -307 -357 0
181 381 398 0
-181 357 -398 0
-181 307 -381 0
182 316 357 0
182 -390 -398 0
182 316 -398 0
182 357 -390 0
-182 -316 390 0
-182 -357 398 0
183 -312 -383 0
183 309 386 0
183 309 -312 0
183 -383 386 0
-183 -309 383 0
-183 312 -386 0
184 -185 -186 -187 -188 0
-184 188 0
-184 185 0
-184 187 0
-184 186 0
185 -313 -409 0
185 368 387 0
185 387 -409 0
185 -313 368 0
-185 -368 409 0
-185 313 -387 0
186 361 362 0
186 -402 -403 0
186 361 -403 0
186 362 -402 0
-186 -361 402 0
-186 -362 403 0
187 -375 390 0
187 -316 416 0
187 -316 -375 0
187 390 416 0
-187 375 -416 0
-187 316 -390 0
188 -376 392 0
188 -351 417 0
188 -351 -376 0
188 392 417 0
-188 376 -417 0
-188 351 -392 0
189 -190 -191 -192 -195 0
-189 195 0
-189 190 0
-189 192 0
-189 191 0
190 312 315 0
190 -386 -389 0
190 312 -389 0
190 315 -386 0
-190 -312 386 0
-190 -315 389 0
191 -358 -414 0
191 373 399 0
191 399 -414 0
191 -358 373 0
-191 -373 414 0
-191 358 -399 0
192 193 194 314 388 0
192 193 194 -314 -388 0
-192 -193 0
-192 -314 388 0
-192 -194 0
-192 314 -388 0
193 -310 384 0
-193 310 0
-193 -384 0
194 306 -380 0
-194 -306 0
-194 380 0
195 -196 -199 350 391 0
195 -196 -199 -350 -391 0
-195 199 0
-195 -350 391 0
-195 196 0
-195 350 -391 0
196 -197 198 -408 0
196 -197 198 367 0
-196 197 0
-196 -198 0
-196 -367 408 0
197 370 372 0
197 -411 -413 0
197 370 -413 0
197 372 -411 0
-197 -370 411 0
-197 -372 413 0
198 371 -412 0
-198 -371 0
-198 412 0
199 -368 -406 0
199 365 409 0
199 365 -368 0
199 -406 409 0
-199 -365 406 0
-199 368 -409 0
200 -201 -202 308 382 0
200 -201 -202 -308 -382 0
-200 202 0
-200 -308 382 0
-200 201 0
-200 308 -382 0
201 -359 374 -400 415 0
201 359 -374 400 -415 0
201 359 374 400 415 0
201 -359 -374 -400 -415 0
-201 -359 400 0
-201 359 -400 0
-201 374 -415 0
-201 -374 415 0
202 -203 -204 -205 -207 0
-202 207 0
-202 203 0
-202 205 0
-202 204 0
203 412 413 414 415 0
-203 -415 0
-203 -414 0
-203 -412 0
-203 -413 0
204 408 409 410 411 0
-204 -411 0
-204 -410 0
-204 -408 0
-204 -409 0
205 -206 -364 -405 0
205 -206 364 405 0
-205 206 0
-205 -364 405 0
-205 364 -405 0
206 416 417 418 419 0
-206 -419 0
-206 -418 0
-206 -416 0
-206 -417 0
207 -208 -209 -210 -211 0
-207 211 0
-207 208 0
-207 210 0
-207 209 0
208 396 397 398 399 0
-208 -399 0
-208 -398 0
-208 -396 0
-208 -397 0
209 392 393 394 395 0
-209 -395 0
-209 -394 0
-209 -392 0
-209 -393 0
210 404 405 406 407 0
-210 -407 0
-210 -406 0
-210 -404 0
-210 -405 0
211 400 401 402 403 0
-211 -403 0
-211 -402 0
-211 -400 0
-211 -401 0
212 -213 -218 -223 -228 0
-212 228 0
-212 213 0
-212 223 0
-212 218 0
213 -214 -215 -216 -217 0
-213 217 0
-213 214 0
-213 216 0
-213 215 0
214 -353 -392 0
214 351 394 0
214 351 -353 0
214 -392 394 0
-214 -351 392 0
-214 353 -394 0
215 -377 384 0
215 -310 418 0
215 -310 -377 0
215 384 418 0
-215 377 -418 0
-215 310 -384 0
216 -309 -380 0
216 306 383 0
216 306 -309 0
216 -380 383 0
-216 -306 380 0
-216 309 -383 0
217 358 376 0
217 -399 -417 0
217 358 -417 0
217 376 -399 0
-217 -358 399 0
-217 -376 417 0
218 -219 -220 -221 -222 0
-218 222 0
-218 219 0
-218 221 0
-218 220 0
219 -356 396 0
219 -355 397 0
219 -355 -356 0
219 396 397 0
-219 356 -397 0
-219 355 -396 0
220 313 375 0
220 -387 -416 0
220 313 -416 0
220 375 -387 0
-220 -313 387 0
-220 -375 416 0
221 -315 -381 0
221 307 389 0
221 307 -315 0
221 -381 389 0
-221 -307 381 0
-221 315 -389 0
222 -311 -397 0
222 356 385 0
222 385 -397 0
222 -311 356 0
-222 -356 397 0
-222 311 -385 0
223 -224 -225 -226 -227 0
-223 227 0
-223 224 0
-223 226 0
-223 225 0
224 380 381 382 383 0
-224 -383 0
-224 -382 0
-224 -380 0
-224 -381 0
225 305 -367 379 0
225 305 379 408 0
-225 -305 0
-225 -379 0
-225 367 -408 0
226 388 389 390 391 0
-226 -391 0
-226 -390 0
-226 -388 0
-226 -389 0
227 384 385 386 387 0
-227 -387 0
-227 -386 0
-227 -384 0
-227 -385 0
228 -229 -230 378 419 0
228 -229 -230 -378 -419 0
-228 230 0
-228 -378 419 0
-228 229 0
-228 378 -419 0
229 -352 -385 0
229 311 393 0
229 311 -352 0
229 -385 393 0
-229 -311 385 0
-229 352 -393 0
230 -231 232 -373 0
230 -231 232 414 0
-230 231 0
-230 -232 0
-230 373 -414 0
231 -369 -412 0
231 371 410 0
231 410 -412 0
231 -369 371 0
-231 -371 412 0
-231 369 -410 0
232 -355 396 0
-232 355 0
-232 -396 0
25 233 -234 -254 356 0
-25 233 -234 -254 -356 0
-233 254 0
25 -233 -356 0
-233 234 0
-25 -233 356 0
234 -235 -244 275 316 0
234 -235 -244 -275 -316 0
-234 244 0
-234 -275 316 0
-234 235 0
-234 275 -316 0
235 -236 -239 -242 -243 0
-235 243 0
-235 236 0
-235 242 0
-235 239 0
236 -237 238 -305 0
236 -237 238 270 0
-236 237 0
-236 -238 0
-236 -270 305 0
237 -274 307 0
237 -272 309 0
237 -272 -274 0
237 307 309 0
-237 274 -309 0
-237 272 -307 0
238 273 -314 0
-238 -273 0
-238 314 0
239 -240 241 -270 0
239 -240 241 305 0
-239 240 0
-239 -241 0
-239 270 -305 0
240 272 273 0
240 -307 -314 0
240 272 -314 0
240 273 -307 0
-240 -272 307 0
-240 -273 314 0
241 -274 309 0
-241 274 0
-241 -309 0
242 268 269 276 277 0
-242 -277 0
-242 -276 0
-242 -268 0
-242 -269 0
243 264 265 266 267 0
-243 -267 0
-243 -266 0
-243 -264 0
-243 -265 0
244 -245 -246 -247 -249 0
-244 249 0
-244 245 0
-244 247 0
-244 246 0
245 298 299 300 301 0
-245 -301 0
-245 -300 0
-245 -298 0
-245 -299 0
246 294 295 296 297 0
-246 -297 0
-246 -296 0
-246 -294 0
-246 -295 0
247 -248 275 304 310 0
247 -248 -275 304 -310 0
-247 248 0
-247 275 -310 0
-247 -304 0
-247 -275 310 0
248 302 303 0
-248 -302 0
-248 -303 0
249 -250 -251 -252 -253 0
-249 253 0
-249 250 0
-249 252 0
-249 251 0
250 282 283 284 285 0
-250 -285 0
-250 -284 0
-250 -282 0
-250 -283 0
251 278 279 280 281 0
-251 -281 0
-251 -280 0
-251 -278 0
-251 -279 0
252 290 291 292 293 0
-252 -293 0
-252 -292 0
-252 -290 0
-252 -291 0
253 286 287 288 289 0
-253 -289 0
-253 -288 0
-253 -286 0
-253 -287 0
29 254 -255 -256 351 0
-29 254 -255 -256 -351 0
-254 256 0
29 -254 -351 0
-254 255 0
-29 -254 351 0
-46 255 270 0
-255 -270 0
46 -255 0
256 -257 -273 -308 0
256 -257 273 308 0
-256 257 0
-256 -273 308 0
-256 273 -308 0
257 271 306 -317 -350 0
257 -271 -306 -317 -350 0
257 271 306 317 350 0
257 -271 -306 317 350 0
-257 271 -306 0
-257 -271 306 0
-257 317 -350 0
-257 -317 350 0
258 -259 -368 0
258 259 368 0
-258 -259 368 0
-258 259 -368 0
47 259 260 0
-6 259 260 0
259 260 294 0
-259 -260 0
6 -47 -259 -294 0
7 260 -261 0
7 53 260 -294 0
-7 -260 0
-53 -260 261 0
-260 261 294 0
-26 261 -262 0
-55 261 -262 -294 0
-261 262 0
26 55 -261 0
26 -261 294 0
-57 262 -263 0
57 -262 0
-262 263 0
18 29 263 0
-18 -263 0
-29 -263 0
1 2 0
-1 -2 0
420 0

